GLPSOL--GLPK LP/MIP Solver 5.0
Parameter(s) specified in the command line:
 --lp ../modeles/15_24.lp --log 15_24.log
Reading problem data from '../modeles/15_24.lp'...
421 rows, 750 columns, 2565 non-zeros
360 integer variables, all of which are binary
1192 lines were read
GLPK Integer Optimizer 5.0
421 rows, 750 columns, 2565 non-zeros
360 integer variables, all of which are binary
Preprocessing...
330 constraint coefficient(s) were reduced
421 rows, 735 columns, 2550 non-zeros
360 integer variables, all of which are binary
Scaling...
 A: min|aij| =  2.778e-02  max|aij| =  4.000e+00  ratio =  1.440e+02
GM: min|aij| =  2.887e-01  max|aij| =  3.464e+00  ratio =  1.200e+01
EQ: min|aij| =  8.333e-02  max|aij| =  1.000e+00  ratio =  1.200e+01
2N: min|aij| =  5.556e-02  max|aij| =  1.440e+00  ratio =  2.592e+01
Constructing initial basis...
Size of triangular part is 421
Solving LP relaxation...
GLPK Simplex Optimizer 5.0
421 rows, 735 columns, 2550 non-zeros
      0: obj =   3.000000000e+01 inf =   7.450e+01 (31)
     91: obj =  -3.666666667e+00 inf =   0.000e+00 (0)
*   140: obj =  -3.666666667e+00 inf =   0.000e+00 (0)
OPTIMAL LP SOLUTION FOUND
Integer optimization begins...
Long-step dual simplex will be used
+   140: mip =     not found yet >=              -inf        (1; 0)
+   161: >>>>>  -3.666666667e+00 >=  -3.666666667e+00 < 0.1% (15; 0)
+   161: mip =  -3.666666667e+00 >=     tree is empty   0.0% (0; 29)
INTEGER OPTIMAL SOLUTION FOUND
Time used:   0.0 secs
Memory used: 1.1 Mb (1196447 bytes)
